Cubic diamond 
3.567
 +4.0000000000  +0.0000000000  +0.0000000000 
 +0.0000000000  +4.0000000000  +0.0000000000 
 +0.0000000000  +0.0000000000  +4.0000000000 
C N
 510 1 
Cartesian
 +0.5000000000  +0.5000000000  +0.0000000000 
 +0.5000000000  +0.0000000000  +0.5000000000 
 +0.0000000000  +0.5000000000  +0.5000000000 
 +0.7500000000  +0.7500000000  +0.2500000000 
 +0.7500000000  +0.2500000000  +0.7500000000 
 +0.2500000000  +0.7500000000  +0.7500000000 
 +0.0000000000  +0.0000000000  +1.0000000000 
 +0.2500000000  +0.2500000000  +1.2500000000 
 +0.5000000000  +0.5000000000  +1.0000000000 
 +0.5000000000  +0.0000000000  +1.5000000000 
 +0.0000000000  +0.5000000000  +1.5000000000 
 +0.7500000000  +0.7500000000  +1.2500000000 
 +0.7500000000  +0.2500000000  +1.7500000000 
 +0.2500000000  +0.7500000000  +1.7500000000 
 +0.0000000000  +0.0000000000  +2.0000000000 
 +0.2500000000  +0.2500000000  +2.2500000000 
 +0.5000000000  +0.5000000000  +2.0000000000 
 +0.5000000000  +0.0000000000  +2.5000000000 
 +0.0000000000  +0.5000000000  +2.5000000000 
 +0.7500000000  +0.7500000000  +2.2500000000 
 +0.7500000000  +0.2500000000  +2.7500000000 
 +0.2500000000  +0.7500000000  +2.7500000000 
 +0.0000000000  +0.0000000000  +3.0000000000 
 +0.2500000000  +0.2500000000  +3.2500000000 
 +0.5000000000  +0.5000000000  +3.0000000000 
 +0.5000000000  +0.0000000000  +3.5000000000 
 +0.0000000000  +0.5000000000  +3.5000000000 
 +0.7500000000  +0.7500000000  +3.2500000000 
 +0.7500000000  +0.2500000000  +3.7500000000 
 +0.2500000000  +0.7500000000  +3.7500000000 
 +0.0000000000  +1.0000000000  +0.0000000000 
 +0.2500000000  +1.2500000000  +0.2500000000 
 +0.5000000000  +1.5000000000  +0.0000000000 
 +0.5000000000  +1.0000000000  +0.5000000000 
 +0.0000000000  +1.5000000000  +0.5000000000 
 +0.7500000000  +1.7500000000  +0.2500000000 
 +0.7500000000  +1.2500000000  +0.7500000000 
 +0.2500000000  +1.7500000000  +0.7500000000 
 +0.0000000000  +1.0000000000  +1.0000000000 
 +0.2500000000  +1.2500000000  +1.2500000000 
 +0.5000000000  +1.5000000000  +1.0000000000 
 +0.5000000000  +1.0000000000  +1.5000000000 
 +0.0000000000  +1.5000000000  +1.5000000000 
 +0.7500000000  +1.7500000000  +1.2500000000 
 +0.7500000000  +1.2500000000  +1.7500000000 
 +0.2500000000  +1.7500000000  +1.7500000000 
 +0.0000000000  +1.0000000000  +2.0000000000 
 +0.2500000000  +1.2500000000  +2.2500000000 
 +0.5000000000  +1.5000000000  +2.0000000000 
 +0.5000000000  +1.0000000000  +2.5000000000 
 +0.0000000000  +1.5000000000  +2.5000000000 
 +0.7500000000  +1.7500000000  +2.2500000000 
 +0.7500000000  +1.2500000000  +2.7500000000 
 +0.2500000000  +1.7500000000  +2.7500000000 
 +0.0000000000  +1.0000000000  +3.0000000000 
 +0.2500000000  +1.2500000000  +3.2500000000 
 +0.5000000000  +1.5000000000  +3.0000000000 
 +0.5000000000  +1.0000000000  +3.5000000000 
 +0.0000000000  +1.5000000000  +3.5000000000 
 +0.7500000000  +1.7500000000  +3.2500000000 
 +0.7500000000  +1.2500000000  +3.7500000000 
 +0.2500000000  +1.7500000000  +3.7500000000 
 +0.0000000000  +2.0000000000  +0.0000000000 
 +0.2500000000  +2.2500000000  +0.2500000000 
 +0.5000000000  +2.5000000000  +0.0000000000 
 +0.5000000000  +2.0000000000  +0.5000000000 
 +0.0000000000  +2.5000000000  +0.5000000000 
 +0.7500000000  +2.7500000000  +0.2500000000 
 +0.7500000000  +2.2500000000  +0.7500000000 
 +0.2500000000  +2.7500000000  +0.7500000000 
 +0.0000000000  +2.0000000000  +1.0000000000 
 +0.2500000000  +2.2500000000  +1.2500000000 
 +0.5000000000  +2.5000000000  +1.0000000000 
 +0.5000000000  +2.0000000000  +1.5000000000 
 +0.0000000000  +2.5000000000  +1.5000000000 
 +0.7500000000  +2.7500000000  +1.2500000000 
 +0.7500000000  +2.2500000000  +1.7500000000 
 +0.2500000000  +2.7500000000  +1.7500000000 
 +0.0000000000  +2.0000000000  +2.0000000000 
 +0.2500000000  +2.2500000000  +2.2500000000 
 +0.5000000000  +2.5000000000  +2.0000000000 
 +0.5000000000  +2.0000000000  +2.5000000000 
 +0.0000000000  +2.5000000000  +2.5000000000 
 +0.7500000000  +2.7500000000  +2.2500000000 
 +0.7500000000  +2.2500000000  +2.7500000000 
 +0.2500000000  +2.7500000000  +2.7500000000 
 +0.0000000000  +2.0000000000  +3.0000000000 
 +0.2500000000  +2.2500000000  +3.2500000000 
 +0.5000000000  +2.5000000000  +3.0000000000 
 +0.5000000000  +2.0000000000  +3.5000000000 
 +0.0000000000  +2.5000000000  +3.5000000000 
 +0.7500000000  +2.7500000000  +3.2500000000 
 +0.7500000000  +2.2500000000  +3.7500000000 
 +0.2500000000  +2.7500000000  +3.7500000000 
 +0.0000000000  +3.0000000000  +0.0000000000 
 +0.2500000000  +3.2500000000  +0.2500000000 
 +0.5000000000  +3.5000000000  +0.0000000000 
 +0.5000000000  +3.0000000000  +0.5000000000 
 +0.0000000000  +3.5000000000  +0.5000000000 
 +0.7500000000  +3.7500000000  +0.2500000000 
 +0.7500000000  +3.2500000000  +0.7500000000 
 +0.2500000000  +3.7500000000  +0.7500000000 
 +0.0000000000  +3.0000000000  +1.0000000000 
 +0.2500000000  +3.2500000000  +1.2500000000 
 +0.5000000000  +3.5000000000  +1.0000000000 
 +0.5000000000  +3.0000000000  +1.5000000000 
 +0.0000000000  +3.5000000000  +1.5000000000 
 +0.7500000000  +3.7500000000  +1.2500000000 
 +0.7500000000  +3.2500000000  +1.7500000000 
 +0.2500000000  +3.7500000000  +1.7500000000 
 +0.0000000000  +3.0000000000  +2.0000000000 
 +0.2500000000  +3.2500000000  +2.2500000000 
 +0.5000000000  +3.5000000000  +2.0000000000 
 +0.5000000000  +3.0000000000  +2.5000000000 
 +0.0000000000  +3.5000000000  +2.5000000000 
 +0.7500000000  +3.7500000000  +2.2500000000 
 +0.7500000000  +3.2500000000  +2.7500000000 
 +0.2500000000  +3.7500000000  +2.7500000000 
 +0.0000000000  +3.0000000000  +3.0000000000 
 +0.2500000000  +3.2500000000  +3.2500000000 
 +0.5000000000  +3.5000000000  +3.0000000000 
 +0.5000000000  +3.0000000000  +3.5000000000 
 +0.0000000000  +3.5000000000  +3.5000000000 
 +0.7500000000  +3.7500000000  +3.2500000000 
 +0.7500000000  +3.2500000000  +3.7500000000 
 +0.2500000000  +3.7500000000  +3.7500000000 
 +1.0000000000  +0.0000000000  +0.0000000000 
 +1.2500000000  +0.2500000000  +0.2500000000 
 +1.5000000000  +0.5000000000  +0.0000000000 
 +1.5000000000  +0.0000000000  +0.5000000000 
 +1.0000000000  +0.5000000000  +0.5000000000 
 +1.7500000000  +0.7500000000  +0.2500000000 
 +1.7500000000  +0.2500000000  +0.7500000000 
 +1.2500000000  +0.7500000000  +0.7500000000 
 +1.0000000000  +0.0000000000  +1.0000000000 
 +1.2500000000  +0.2500000000  +1.2500000000 
 +1.5000000000  +0.5000000000  +1.0000000000 
 +1.5000000000  +0.0000000000  +1.5000000000 
 +1.0000000000  +0.5000000000  +1.5000000000 
 +1.7500000000  +0.7500000000  +1.2500000000 
 +1.7500000000  +0.2500000000  +1.7500000000 
 +1.2500000000  +0.7500000000  +1.7500000000 
 +1.0000000000  +0.0000000000  +2.0000000000 
 +1.2500000000  +0.2500000000  +2.2500000000 
 +1.5000000000  +0.5000000000  +2.0000000000 
 +1.5000000000  +0.0000000000  +2.5000000000 
 +1.0000000000  +0.5000000000  +2.5000000000 
 +1.7500000000  +0.7500000000  +2.2500000000 
 +1.7500000000  +0.2500000000  +2.7500000000 
 +1.2500000000  +0.7500000000  +2.7500000000 
 +1.0000000000  +0.0000000000  +3.0000000000 
 +1.2500000000  +0.2500000000  +3.2500000000 
 +1.5000000000  +0.5000000000  +3.0000000000 
 +1.5000000000  +0.0000000000  +3.5000000000 
 +1.0000000000  +0.5000000000  +3.5000000000 
 +1.7500000000  +0.7500000000  +3.2500000000 
 +1.7500000000  +0.2500000000  +3.7500000000 
 +1.2500000000  +0.7500000000  +3.7500000000 
 +1.0000000000  +1.0000000000  +0.0000000000 
 +1.2500000000  +1.2500000000  +0.2500000000 
 +1.5000000000  +1.5000000000  +0.0000000000 
 +1.5000000000  +1.0000000000  +0.5000000000 
 +1.0000000000  +1.5000000000  +0.5000000000 
 +1.7500000000  +1.7500000000  +0.2500000000 
 +1.7500000000  +1.2500000000  +0.7500000000 
 +1.2500000000  +1.7500000000  +0.7500000000 
 +1.0000000000  +1.0000000000  +1.0000000000 
 +1.2500000000  +1.2500000000  +1.2500000000 
 +1.5000000000  +1.5000000000  +1.0000000000 
 +1.5000000000  +1.0000000000  +1.5000000000 
 +1.0000000000  +1.5000000000  +1.5000000000 
 +1.7500000000  +1.7500000000  +1.2500000000 
 +1.7500000000  +1.2500000000  +1.7500000000 
 +1.2500000000  +1.7500000000  +1.7500000000 
 +1.0000000000  +1.0000000000  +2.0000000000 
 +1.2500000000  +1.2500000000  +2.2500000000 
 +1.5000000000  +1.5000000000  +2.0000000000 
 +1.5000000000  +1.0000000000  +2.5000000000 
 +1.0000000000  +1.5000000000  +2.5000000000 
 +1.7500000000  +1.7500000000  +2.2500000000 
 +1.7500000000  +1.2500000000  +2.7500000000 
 +1.2500000000  +1.7500000000  +2.7500000000 
 +1.0000000000  +1.0000000000  +3.0000000000 
 +1.2500000000  +1.2500000000  +3.2500000000 
 +1.5000000000  +1.5000000000  +3.0000000000 
 +1.5000000000  +1.0000000000  +3.5000000000 
 +1.0000000000  +1.5000000000  +3.5000000000 
 +1.7500000000  +1.7500000000  +3.2500000000 
 +1.7500000000  +1.2500000000  +3.7500000000 
 +1.2500000000  +1.7500000000  +3.7500000000 
 +1.0000000000  +2.0000000000  +0.0000000000 
 +1.2500000000  +2.2500000000  +0.2500000000 
 +1.5000000000  +2.5000000000  +0.0000000000 
 +1.5000000000  +2.0000000000  +0.5000000000 
 +1.0000000000  +2.5000000000  +0.5000000000 
 +1.7500000000  +2.7500000000  +0.2500000000 
 +1.7500000000  +2.2500000000  +0.7500000000 
 +1.2500000000  +2.7500000000  +0.7500000000 
 +1.0000000000  +2.0000000000  +1.0000000000 
 +1.2500000000  +2.2500000000  +1.2500000000 
 +1.5000000000  +2.5000000000  +1.0000000000 
 +1.5000000000  +2.0000000000  +1.5000000000 
 +1.0000000000  +2.5000000000  +1.5000000000 
 +1.7500000000  +2.7500000000  +1.2500000000 
 +1.7500000000  +2.2500000000  +1.7500000000 
 +1.2500000000  +2.7500000000  +1.7500000000 
 +1.0000000000  +2.0000000000  +2.0000000000 
 +1.2500000000  +2.2500000000  +2.2500000000 
 +1.5000000000  +2.5000000000  +2.0000000000 
 +1.5000000000  +2.0000000000  +2.5000000000 
 +1.0000000000  +2.5000000000  +2.5000000000 
 +1.7500000000  +2.7500000000  +2.2500000000 
 +1.7500000000  +2.2500000000  +2.7500000000 
 +1.2500000000  +2.7500000000  +2.7500000000 
 +1.0000000000  +2.0000000000  +3.0000000000 
 +1.2500000000  +2.2500000000  +3.2500000000 
 +1.5000000000  +2.5000000000  +3.0000000000 
 +1.5000000000  +2.0000000000  +3.5000000000 
 +1.0000000000  +2.5000000000  +3.5000000000 
 +1.7500000000  +2.7500000000  +3.2500000000 
 +1.7500000000  +2.2500000000  +3.7500000000 
 +1.2500000000  +2.7500000000  +3.7500000000 
 +1.0000000000  +3.0000000000  +0.0000000000 
 +1.2500000000  +3.2500000000  +0.2500000000 
 +1.5000000000  +3.5000000000  +0.0000000000 
 +1.5000000000  +3.0000000000  +0.5000000000 
 +1.0000000000  +3.5000000000  +0.5000000000 
 +1.7500000000  +3.7500000000  +0.2500000000 
 +1.7500000000  +3.2500000000  +0.7500000000 
 +1.2500000000  +3.7500000000  +0.7500000000 
 +1.0000000000  +3.0000000000  +1.0000000000 
 +1.2500000000  +3.2500000000  +1.2500000000 
 +1.5000000000  +3.5000000000  +1.0000000000 
 +1.5000000000  +3.0000000000  +1.5000000000 
 +1.0000000000  +3.5000000000  +1.5000000000 
 +1.7500000000  +3.7500000000  +1.2500000000 
 +1.7500000000  +3.2500000000  +1.7500000000 
 +1.2500000000  +3.7500000000  +1.7500000000 
 +1.0000000000  +3.0000000000  +2.0000000000 
 +1.2500000000  +3.2500000000  +2.2500000000 
 +1.5000000000  +3.5000000000  +2.0000000000 
 +1.5000000000  +3.0000000000  +2.5000000000 
 +1.0000000000  +3.5000000000  +2.5000000000 
 +1.7500000000  +3.7500000000  +2.2500000000 
 +1.7500000000  +3.2500000000  +2.7500000000 
 +1.2500000000  +3.7500000000  +2.7500000000 
 +1.0000000000  +3.0000000000  +3.0000000000 
 +1.2500000000  +3.2500000000  +3.2500000000 
 +1.5000000000  +3.5000000000  +3.0000000000 
 +1.5000000000  +3.0000000000  +3.5000000000 
 +1.0000000000  +3.5000000000  +3.5000000000 
 +1.7500000000  +3.7500000000  +3.2500000000 
 +1.7500000000  +3.2500000000  +3.7500000000 
 +1.2500000000  +3.7500000000  +3.7500000000 
 +2.0000000000  +0.0000000000  +0.0000000000 
 +2.2500000000  +0.2500000000  +0.2500000000 
 +2.5000000000  +0.5000000000  +0.0000000000 
 +2.5000000000  +0.0000000000  +0.5000000000 
 +2.0000000000  +0.5000000000  +0.5000000000 
 +2.7500000000  +0.7500000000  +0.2500000000 
 +2.7500000000  +0.2500000000  +0.7500000000 
 +2.2500000000  +0.7500000000  +0.7500000000 
 +2.0000000000  +0.0000000000  +1.0000000000 
 +2.2500000000  +0.2500000000  +1.2500000000 
 +2.5000000000  +0.5000000000  +1.0000000000 
 +2.5000000000  +0.0000000000  +1.5000000000 
 +2.0000000000  +0.5000000000  +1.5000000000 
 +2.7500000000  +0.7500000000  +1.2500000000 
 +2.7500000000  +0.2500000000  +1.7500000000 
 +2.2500000000  +0.7500000000  +1.7500000000 
 +2.0000000000  +0.0000000000  +2.0000000000 
 +2.2500000000  +0.2500000000  +2.2500000000 
 +2.5000000000  +0.5000000000  +2.0000000000 
 +2.5000000000  +0.0000000000  +2.5000000000 
 +2.0000000000  +0.5000000000  +2.5000000000 
 +2.7500000000  +0.7500000000  +2.2500000000 
 +2.7500000000  +0.2500000000  +2.7500000000 
 +2.2500000000  +0.7500000000  +2.7500000000 
 +2.0000000000  +0.0000000000  +3.0000000000 
 +2.2500000000  +0.2500000000  +3.2500000000 
 +2.5000000000  +0.5000000000  +3.0000000000 
 +2.5000000000  +0.0000000000  +3.5000000000 
 +2.0000000000  +0.5000000000  +3.5000000000 
 +2.7500000000  +0.7500000000  +3.2500000000 
 +2.7500000000  +0.2500000000  +3.7500000000 
 +2.2500000000  +0.7500000000  +3.7500000000 
 +2.0000000000  +1.0000000000  +0.0000000000 
 +2.2500000000  +1.2500000000  +0.2500000000 
 +2.5000000000  +1.5000000000  +0.0000000000 
 +2.5000000000  +1.0000000000  +0.5000000000 
 +2.0000000000  +1.5000000000  +0.5000000000 
 +2.7500000000  +1.7500000000  +0.2500000000 
 +2.7500000000  +1.2500000000  +0.7500000000 
 +2.2500000000  +1.7500000000  +0.7500000000 
 +2.0000000000  +1.0000000000  +1.0000000000 
 +2.2500000000  +1.2500000000  +1.2500000000 
 +2.5000000000  +1.5000000000  +1.0000000000 
 +2.5000000000  +1.0000000000  +1.5000000000 
 +2.0000000000  +1.5000000000  +1.5000000000 
 +2.7500000000  +1.7500000000  +1.2500000000 
 +2.7500000000  +1.2500000000  +1.7500000000 
 +2.2500000000  +1.7500000000  +1.7500000000 
 +2.0000000000  +1.0000000000  +2.0000000000 
 +2.2500000000  +1.2500000000  +2.2500000000 
 +2.5000000000  +1.5000000000  +2.0000000000 
 +2.5000000000  +1.0000000000  +2.5000000000 
 +2.0000000000  +1.5000000000  +2.5000000000 
 +2.7500000000  +1.7500000000  +2.2500000000 
 +2.7500000000  +1.2500000000  +2.7500000000 
 +2.2500000000  +1.7500000000  +2.7500000000 
 +2.0000000000  +1.0000000000  +3.0000000000 
 +2.2500000000  +1.2500000000  +3.2500000000 
 +2.5000000000  +1.5000000000  +3.0000000000 
 +2.5000000000  +1.0000000000  +3.5000000000 
 +2.0000000000  +1.5000000000  +3.5000000000 
 +2.7500000000  +1.7500000000  +3.2500000000 
 +2.7500000000  +1.2500000000  +3.7500000000 
 +2.2500000000  +1.7500000000  +3.7500000000 
 +2.0000000000  +2.0000000000  +0.0000000000 
 +2.2500000000  +2.2500000000  +0.2500000000 
 +2.5000000000  +2.5000000000  +0.0000000000 
 +2.5000000000  +2.0000000000  +0.5000000000 
 +2.0000000000  +2.5000000000  +0.5000000000 
 +2.7500000000  +2.7500000000  +0.2500000000 
 +2.7500000000  +2.2500000000  +0.7500000000 
 +2.2500000000  +2.7500000000  +0.7500000000 
 +2.0000000000  +2.0000000000  +1.0000000000 
 +2.2500000000  +2.2500000000  +1.2500000000 
 +2.5000000000  +2.5000000000  +1.0000000000 
 +2.5000000000  +2.0000000000  +1.5000000000 
 +2.0000000000  +2.5000000000  +1.5000000000 
 +2.7500000000  +2.7500000000  +1.2500000000 
 +2.7500000000  +2.2500000000  +1.7500000000 
 +2.2500000000  +2.7500000000  +1.7500000000 
 +2.0000000000  +2.0000000000  +2.0000000000 
 +2.2500000000  +2.2500000000  +2.2500000000 
 +2.5000000000  +2.5000000000  +2.0000000000 
 +2.5000000000  +2.0000000000  +2.5000000000 
 +2.0000000000  +2.5000000000  +2.5000000000 
 +2.7500000000  +2.7500000000  +2.2500000000 
 +2.7500000000  +2.2500000000  +2.7500000000 
 +2.2500000000  +2.7500000000  +2.7500000000 
 +2.0000000000  +2.0000000000  +3.0000000000 
 +2.2500000000  +2.2500000000  +3.2500000000 
 +2.5000000000  +2.5000000000  +3.0000000000 
 +2.5000000000  +2.0000000000  +3.5000000000 
 +2.0000000000  +2.5000000000  +3.5000000000 
 +2.7500000000  +2.7500000000  +3.2500000000 
 +2.7500000000  +2.2500000000  +3.7500000000 
 +2.2500000000  +2.7500000000  +3.7500000000 
 +2.0000000000  +3.0000000000  +0.0000000000 
 +2.2500000000  +3.2500000000  +0.2500000000 
 +2.5000000000  +3.5000000000  +0.0000000000 
 +2.5000000000  +3.0000000000  +0.5000000000 
 +2.0000000000  +3.5000000000  +0.5000000000 
 +2.7500000000  +3.7500000000  +0.2500000000 
 +2.7500000000  +3.2500000000  +0.7500000000 
 +2.2500000000  +3.7500000000  +0.7500000000 
 +2.0000000000  +3.0000000000  +1.0000000000 
 +2.2500000000  +3.2500000000  +1.2500000000 
 +2.5000000000  +3.5000000000  +1.0000000000 
 +2.5000000000  +3.0000000000  +1.5000000000 
 +2.0000000000  +3.5000000000  +1.5000000000 
 +2.7500000000  +3.7500000000  +1.2500000000 
 +2.7500000000  +3.2500000000  +1.7500000000 
 +2.2500000000  +3.7500000000  +1.7500000000 
 +2.0000000000  +3.0000000000  +2.0000000000 
 +2.2500000000  +3.2500000000  +2.2500000000 
 +2.5000000000  +3.5000000000  +2.0000000000 
 +2.5000000000  +3.0000000000  +2.5000000000 
 +2.0000000000  +3.5000000000  +2.5000000000 
 +2.7500000000  +3.7500000000  +2.2500000000 
 +2.7500000000  +3.2500000000  +2.7500000000 
 +2.2500000000  +3.7500000000  +2.7500000000 
 +2.0000000000  +3.0000000000  +3.0000000000 
 +2.2500000000  +3.2500000000  +3.2500000000 
 +2.5000000000  +3.5000000000  +3.0000000000 
 +2.5000000000  +3.0000000000  +3.5000000000 
 +2.0000000000  +3.5000000000  +3.5000000000 
 +2.7500000000  +3.7500000000  +3.2500000000 
 +2.7500000000  +3.2500000000  +3.7500000000 
 +2.2500000000  +3.7500000000  +3.7500000000 
 +3.0000000000  +0.0000000000  +0.0000000000 
 +3.2500000000  +0.2500000000  +0.2500000000 
 +3.5000000000  +0.5000000000  +0.0000000000 
 +3.5000000000  +0.0000000000  +0.5000000000 
 +3.0000000000  +0.5000000000  +0.5000000000 
 +3.7500000000  +0.7500000000  +0.2500000000 
 +3.7500000000  +0.2500000000  +0.7500000000 
 +3.2500000000  +0.7500000000  +0.7500000000 
 +3.0000000000  +0.0000000000  +1.0000000000 
 +3.2500000000  +0.2500000000  +1.2500000000 
 +3.5000000000  +0.5000000000  +1.0000000000 
 +3.5000000000  +0.0000000000  +1.5000000000 
 +3.0000000000  +0.5000000000  +1.5000000000 
 +3.7500000000  +0.7500000000  +1.2500000000 
 +3.7500000000  +0.2500000000  +1.7500000000 
 +3.2500000000  +0.7500000000  +1.7500000000 
 +3.0000000000  +0.0000000000  +2.0000000000 
 +3.2500000000  +0.2500000000  +2.2500000000 
 +3.5000000000  +0.5000000000  +2.0000000000 
 +3.5000000000  +0.0000000000  +2.5000000000 
 +3.0000000000  +0.5000000000  +2.5000000000 
 +3.7500000000  +0.7500000000  +2.2500000000 
 +3.7500000000  +0.2500000000  +2.7500000000 
 +3.2500000000  +0.7500000000  +2.7500000000 
 +3.0000000000  +0.0000000000  +3.0000000000 
 +3.2500000000  +0.2500000000  +3.2500000000 
 +3.5000000000  +0.5000000000  +3.0000000000 
 +3.5000000000  +0.0000000000  +3.5000000000 
 +3.0000000000  +0.5000000000  +3.5000000000 
 +3.7500000000  +0.7500000000  +3.2500000000 
 +3.7500000000  +0.2500000000  +3.7500000000 
 +3.2500000000  +0.7500000000  +3.7500000000 
 +3.0000000000  +1.0000000000  +0.0000000000 
 +3.2500000000  +1.2500000000  +0.2500000000 
 +3.5000000000  +1.5000000000  +0.0000000000 
 +3.5000000000  +1.0000000000  +0.5000000000 
 +3.0000000000  +1.5000000000  +0.5000000000 
 +3.7500000000  +1.7500000000  +0.2500000000 
 +3.7500000000  +1.2500000000  +0.7500000000 
 +3.2500000000  +1.7500000000  +0.7500000000 
 +3.0000000000  +1.0000000000  +1.0000000000 
 +3.2500000000  +1.2500000000  +1.2500000000 
 +3.5000000000  +1.5000000000  +1.0000000000 
 +3.5000000000  +1.0000000000  +1.5000000000 
 +3.0000000000  +1.5000000000  +1.5000000000 
 +3.7500000000  +1.7500000000  +1.2500000000 
 +3.7500000000  +1.2500000000  +1.7500000000 
 +3.2500000000  +1.7500000000  +1.7500000000 
 +3.0000000000  +1.0000000000  +2.0000000000 
 +3.2500000000  +1.2500000000  +2.2500000000 
 +3.5000000000  +1.5000000000  +2.0000000000 
 +3.5000000000  +1.0000000000  +2.5000000000 
 +3.0000000000  +1.5000000000  +2.5000000000 
 +3.7500000000  +1.7500000000  +2.2500000000 
 +3.7500000000  +1.2500000000  +2.7500000000 
 +3.2500000000  +1.7500000000  +2.7500000000 
 +3.0000000000  +1.0000000000  +3.0000000000 
 +3.2500000000  +1.2500000000  +3.2500000000 
 +3.5000000000  +1.5000000000  +3.0000000000 
 +3.5000000000  +1.0000000000  +3.5000000000 
 +3.0000000000  +1.5000000000  +3.5000000000 
 +3.7500000000  +1.7500000000  +3.2500000000 
 +3.7500000000  +1.2500000000  +3.7500000000 
 +3.2500000000  +1.7500000000  +3.7500000000 
 +3.0000000000  +2.0000000000  +0.0000000000 
 +3.2500000000  +2.2500000000  +0.2500000000 
 +3.5000000000  +2.5000000000  +0.0000000000 
 +3.5000000000  +2.0000000000  +0.5000000000 
 +3.0000000000  +2.5000000000  +0.5000000000 
 +3.7500000000  +2.7500000000  +0.2500000000 
 +3.7500000000  +2.2500000000  +0.7500000000 
 +3.2500000000  +2.7500000000  +0.7500000000 
 +3.0000000000  +2.0000000000  +1.0000000000 
 +3.2500000000  +2.2500000000  +1.2500000000 
 +3.5000000000  +2.5000000000  +1.0000000000 
 +3.5000000000  +2.0000000000  +1.5000000000 
 +3.0000000000  +2.5000000000  +1.5000000000 
 +3.7500000000  +2.7500000000  +1.2500000000 
 +3.7500000000  +2.2500000000  +1.7500000000 
 +3.2500000000  +2.7500000000  +1.7500000000 
 +3.0000000000  +2.0000000000  +2.0000000000 
 +3.2500000000  +2.2500000000  +2.2500000000 
 +3.5000000000  +2.5000000000  +2.0000000000 
 +3.5000000000  +2.0000000000  +2.5000000000 
 +3.0000000000  +2.5000000000  +2.5000000000 
 +3.7500000000  +2.7500000000  +2.2500000000 
 +3.7500000000  +2.2500000000  +2.7500000000 
 +3.2500000000  +2.7500000000  +2.7500000000 
 +3.0000000000  +2.0000000000  +3.0000000000 
 +3.2500000000  +2.2500000000  +3.2500000000 
 +3.5000000000  +2.5000000000  +3.0000000000 
 +3.5000000000  +2.0000000000  +3.5000000000 
 +3.0000000000  +2.5000000000  +3.5000000000 
 +3.7500000000  +2.7500000000  +3.2500000000 
 +3.7500000000  +2.2500000000  +3.7500000000 
 +3.2500000000  +2.7500000000  +3.7500000000 
 +3.0000000000  +3.0000000000  +0.0000000000 
 +3.2500000000  +3.2500000000  +0.2500000000 
 +3.5000000000  +3.5000000000  +0.0000000000 
 +3.5000000000  +3.0000000000  +0.5000000000 
 +3.0000000000  +3.5000000000  +0.5000000000 
 +3.7500000000  +3.7500000000  +0.2500000000 
 +3.7500000000  +3.2500000000  +0.7500000000 
 +3.2500000000  +3.7500000000  +0.7500000000 
 +3.0000000000  +3.0000000000  +1.0000000000 
 +3.2500000000  +3.2500000000  +1.2500000000 
 +3.5000000000  +3.5000000000  +1.0000000000 
 +3.5000000000  +3.0000000000  +1.5000000000 
 +3.0000000000  +3.5000000000  +1.5000000000 
 +3.7500000000  +3.7500000000  +1.2500000000 
 +3.7500000000  +3.2500000000  +1.7500000000 
 +3.2500000000  +3.7500000000  +1.7500000000 
 +3.0000000000  +3.0000000000  +2.0000000000 
 +3.2500000000  +3.2500000000  +2.2500000000 
 +3.5000000000  +3.5000000000  +2.0000000000 
 +3.5000000000  +3.0000000000  +2.5000000000 
 +3.0000000000  +3.5000000000  +2.5000000000 
 +3.7500000000  +3.7500000000  +2.2500000000 
 +3.7500000000  +3.2500000000  +2.7500000000 
 +3.2500000000  +3.7500000000  +2.7500000000 
 +3.0000000000  +3.0000000000  +3.0000000000 
 +3.2500000000  +3.2500000000  +3.2500000000 
 +3.5000000000  +3.5000000000  +3.0000000000 
 +3.5000000000  +3.0000000000  +3.5000000000 
 +3.0000000000  +3.5000000000  +3.5000000000 
 +3.7500000000  +3.7500000000  +3.2500000000 
 +3.7500000000  +3.2500000000  +3.7500000000 
 +3.2500000000  +3.7500000000  +3.7500000000 
 +0.0000000000  +0.0000000000  +0.0000000000 
