# TEST_INCAR_WITHOUT_ENCUT FILE AUTOMATICALLY GENERATED 
ISPIN=2
IBRION=2
