ISPIN=2
ENCUT = 400
#Elektronenanzahl = 510*5 + 5 + 1
NELECT=2046
#NELM=150
#ISMEAR=-2
#FERWE=256*1 128*0
#FERDO=254*1 130*0
#NBANDS=384
IBRION=2
# ISIF controls whether the stress tensor is calculated.
ISIF=0
# Number of ionic steps
NSW = 100
NPAR = 8
